100
120
99
99
99
98
98
98
97
97
97
96
96
95
94
94
92
91
90
88
88
87
86
86
86
86
84
84
83
82
82
82
81
81
81
81
80
79
78
77
77
76
75
75
75
75
74
74
73
72
72
69
67
66
63
63
63
61
60
60
59
59
58
58
56
56
55
55
54
52
50
49
48
48
48
47
47
47
46
46
44
42
40
40
39
38
37
37
36
36
36
35
34
33
33
32
31
31
31
30
30
30
